c n orig vars 533
p cnf 848 1410
667 0
583 -665 0
583 -676 0
583 -673 0
-583 665 676 673 0
825 -670 0
825 -722 0
825 -454 0
825 -358 0
825 -296 0
825 -297 0
825 -294 0
825 -295 0
825 -300 0
-825 670 722 454 358 296 297 294 295 300 0
534 -350 0
534 -349 0
534 -397 0
-534 350 349 397 0
-535 537 0
-535 546 0
535 -537 -546 0
536 -647 0
536 -648 0
536 -649 0
536 -692 0
536 -691 0
536 -690 0
-536 647 648 649 692 691 690 0
537 -19 0
537 -18 0
537 -547 0
-537 19 18 547 0
538 -772 0
538 -541 0
538 -49 0
538 -402 0
538 -403 0
-538 772 541 49 402 403 0
-539 540 0
-539 351 0
539 -540 -351 0
540 -772 0
540 -49 0
540 -48 0
540 -401 0
-540 772 49 48 401 0
-541 534 0
-541 404 0
541 -534 -404 0
542 -332 0
542 -335 0
542 -334 0
-542 332 335 334 0
543 -786 0
543 -542 0
543 -34 0
-543 786 542 34 0
544 -788 0
544 -787 0
544 -35 0
-544 788 787 35 0
-545 580 0
-545 581 0
545 -580 -581 0
546 -405 0
546 -32 0
546 -687 0
-546 405 32 687 0
547 -17 0
547 -252 0
547 -827 0
547 -253 0
547 -250 0
-547 17 252 827 253 250 0
-548 544 0
-548 543 0
548 -544 -543 0
549 -44 0
549 -640 0
-549 44 640 0
-761 767 0
-761 639 0
761 -767 -639 0
577 -209 0
577 -514 0
577 -517 0
-577 209 514 517 0
589 -148 0
589 -147 0
-589 148 147 0
571 -694 0
571 -513 0
571 -512 0
571 -515 0
-571 694 513 512 515 0
762 -547 0
762 -19 0
762 -394 0
762 -367 0
762 -368 0
-762 547 19 394 367 368 0
554 -548 0
554 -633 0
554 -629 0
554 -545 0
-554 548 633 629 545 0
555 -666 0
555 -829 0
555 -830 0
555 -47 0
-555 666 829 830 47 0
556 -745 0
556 -746 0
556 -743 0
556 -744 0
-556 745 746 743 744 0
557 -535 0
557 -536 0
-557 535 536 0
558 -815 0
558 -816 0
558 -813 0
558 -140 0
558 -165 0
558 -814 0
558 -807 0
558 -808 0
558 -766 0
558 -765 0
558 -768 0
-558 815 816 813 140 165 814 807 808 766 765 768 0
559 -344 0
559 -582 0
559 -585 0
559 -584 0
-559 344 582 585 584 0
560 -848 0
560 -847 0
560 -846 0
560 -177 0
560 -179 0
560 -845 0
560 -844 0
560 -843 0
560 -842 0
560 -841 0
560 -840 0
-560 848 847 846 177 179 845 844 843 842 841 840 0
-826 820 0
-826 821 0
-826 822 0
-826 823 0
826 -820 -821 -822 -823 0
564 -826 0
564 -698 0
-564 826 698 0
565 -578 0
565 -579 0
565 -568 0
-565 578 579 568 0
-566 572 0
-566 573 0
566 -572 -573 0
-567 763 0
-567 762 0
567 -763 -762 0
-568 455 0
-568 825 0
568 -455 -825 0
569 -602 0
569 -605 0
-569 602 605 0
570 -571 0
570 -576 0
570 -250 0
-570 571 576 250 0
782 -781 0
782 -694 0
782 -67 0
782 -66 0
782 -65 0
-782 781 694 67 66 65 0
572 -547 0
572 -570 0
572 -19 0
572 -394 0
572 -510 0
-572 547 570 19 394 510 0
573 -687 0
573 -660 0
573 -405 0
573 -406 0
573 -372 0
-573 687 660 405 406 372 0
574 -788 0
574 -787 0
574 -436 0
-574 788 787 436 0
575 -786 0
575 -542 0
575 -437 0
-575 786 542 437 0
726 -812 0
726 -212 0
726 -141 0
726 -285 0
726 -442 0
726 -449 0
726 -448 0
-726 812 212 141 285 442 449 448 0
550 -433 0
550 -434 0
550 -435 0
-550 433 434 435 0
578 -569 0
578 -603 0
-578 569 603 0
579 -776 0
579 -775 0
579 -778 0
-579 776 775 778 0
580 -695 0
580 -438 0
580 -429 0
-580 695 438 429 0
581 -693 0
581 -430 0
581 -278 0
-581 693 430 278 0
582 -587 0
582 -586 0
582 -347 0
-582 587 586 347 0
561 -622 0
561 -243 0
561 -87 0
561 -485 0
-561 622 243 87 485 0
584 -137 0
584 -809 0
-584 137 809 0
585 -687 0
585 -442 0
585 -449 0
585 -448 0
585 -686 0
585 -447 0
585 -446 0
585 -440 0
585 -439 0
585 -288 0
585 -289 0
585 -811 0
-585 687 442 449 448 686 447 446 440 439 288 289 811 0
586 -730 0
586 -731 0
586 -732 0
586 -54 0
586 -55 0
586 -56 0
-586 730 731 732 54 55 56 0
587 -592 0
587 -588 0
587 -591 0
587 -348 0
587 -211 0
587 -210 0
-587 592 588 591 348 211 210 0
-588 553 0
-588 727 0
588 -553 -727 0
-592 590 0
-592 723 0
592 -590 -723 0
590 -724 0
590 -213 0
-590 724 213 0
-591 728 0
-591 729 0
591 -728 -729 0
594 -722 0
594 -638 0
594 -146 0
594 -145 0
594 -144 0
594 -143 0
594 -142 0
594 -151 0
594 -150 0
594 -5 0
594 -6 0
594 -7 0
-594 722 638 146 145 144 143 142 151 150 5 6 7 0
595 -589 0
595 -583 0
595 -291 0
595 -290 0
595 -149 0
-595 589 583 291 290 149 0
820 -670 0
820 -301 0
820 -298 0
-820 670 301 298 0
596 -162 0
596 -287 0
596 -122 0
596 -123 0
596 -120 0
596 -286 0
-596 162 287 122 123 120 286 0
597 -722 0
597 -4 0
597 -9 0
597 -10 0
597 -463 0
597 -462 0
597 -465 0
-597 722 4 9 10 463 462 465 0
598 -277 0
598 -280 0
598 -279 0
-598 277 280 279 0
599 -600 0
599 -608 0
-599 600 608 0
-600 607 0
-600 669 0
600 -607 -669 0
601 -280 0
601 -274 0
601 -273 0
601 -276 0
601 -275 0
601 -272 0
601 -271 0
601 -118 0
-601 280 274 273 276 275 272 271 118 0
-602 604 0
-602 599 0
602 -604 -599 0
562 -726 0
562 -550 0
562 -432 0
-562 726 550 432 0
604 -687 0
604 -598 0
604 -442 0
604 -601 0
-604 687 598 442 601 0
-605 720 0
-605 719 0
605 -720 -719 0
606 -139 0
606 -337 0
606 -338 0
-606 139 337 338 0
819 -788 0
819 -787 0
819 -431 0
-819 788 787 431 0
607 -670 0
607 -119 0
607 -116 0
607 -117 0
-607 670 119 116 117 0
608 -670 0
608 -722 0
608 -721 0
-608 670 722 721 0
603 -663 0
603 -664 0
-603 663 664 0
610 -838 0
610 -75 0
610 -60 0
610 -61 0
610 -509 0
610 -508 0
-610 838 75 60 61 509 508 0
781 -64 0
781 -63 0
-781 64 63 0
-824 461 0
-824 460 0
824 -461 -460 0
740 -17 0
740 -113 0
740 -224 0
-740 17 113 224 0
-612 611 0
-612 610 0
612 -611 -610 0
613 -217 0
613 -216 0
613 -68 0
-613 217 216 68 0
614 -761 0
614 -650 0
-614 761 650 0
615 -566 0
615 -567 0
-615 566 567 0
616 -192 0
616 -223 0
616 -222 0
-616 192 223 222 0
617 -17 0
617 -252 0
617 -224 0
-617 17 252 224 0
618 -212 0
618 -227 0
618 -226 0
-618 212 227 226 0
-619 618 0
-619 613 0
619 -618 -613 0
620 -651 0
620 -94 0
620 -488 0
620 -487 0
-620 651 94 488 487 0
-621 632 0
-621 89 0
621 -632 -89 0
622 -234 0
622 -233 0
622 -90 0
622 -91 0
622 -92 0
622 -93 0
-622 234 233 90 91 92 93 0
623 -622 0
623 -621 0
623 -243 0
623 -87 0
623 -88 0
-623 622 621 243 87 88 0
624 -622 0
624 -243 0
624 -242 0
-624 622 243 242 0
625 -86 0
625 -174 0
-625 86 174 0
-626 624 0
-626 625 0
626 -624 -625 0
-627 623 0
-627 620 0
627 -623 -620 0
-629 574 0
-629 575 0
629 -574 -575 0
763 -687 0
763 -405 0
763 -406 0
763 -369 0
763 -370 0
-763 687 405 406 369 370 0
632 -94 0
632 -95 0
632 -489 0
-632 94 95 489 0
-651 561 0
-651 486 0
651 -561 -486 0
822 -832 0
822 -302 0
822 -303 0
-822 832 302 303 0
764 -192 0
764 -516 0
764 -371 0
-764 192 516 371 0
-635 459 0
-635 458 0
635 -459 -458 0
636 -770 0
636 -769 0
636 -373 0
-636 770 769 373 0
637 -596 0
637 -595 0
637 -116 0
637 -594 0
-637 596 595 116 594 0
638 -672 0
638 -8 0
638 -1 0
638 -2 0
638 -3 0
-638 672 8 1 2 3 0
639 -791 0
639 -314 0
639 -315 0
-639 791 314 315 0
640 -19 0
640 -394 0
640 -494 0
640 -495 0
640 -496 0
640 -497 0
640 -498 0
640 -642 0
-640 19 394 494 495 496 497 498 642 0
641 -499 0
641 -643 0
-641 499 643 0
642 -17 0
642 -252 0
642 -253 0
642 -250 0
642 -414 0
642 -413 0
642 -416 0
-642 17 252 253 250 414 413 416 0
643 -405 0
643 -406 0
643 -99 0
643 -98 0
643 -97 0
643 -96 0
643 -103 0
643 -644 0
-643 405 406 99 98 97 96 103 644 0
644 -212 0
644 -157 0
644 -141 0
644 -285 0
644 -102 0
644 -101 0
644 -100 0
-644 212 157 141 285 102 101 100 0
-645 105 0
-645 104 0
645 -105 -104 0
-646 306 0
-646 307 0
646 -306 -307 0
-647 689 0
-647 696 0
647 -689 -696 0
-648 689 0
-648 697 0
648 -689 -697 0
-649 689 0
-649 750 0
649 -689 -750 0
725 -759 0
725 -261 0
725 -260 0
725 -112 0
-725 759 261 260 112 0
823 -619 0
823 -229 0
823 -228 0
-823 619 229 228 0
-652 774 0
-652 423 0
-652 773 0
-652 426 0
652 -774 -423 -773 -426 0
-653 126 0
-653 127 0
653 -126 -127 0
656 -365 0
656 -115 0
656 -108 0
656 -109 0
656 -110 0
656 -111 0
-656 365 115 108 109 110 111 0
-650 834 0
-650 702 0
650 -834 -702 0
657 -258 0
657 -259 0
657 -256 0
-657 258 259 256 0
658 -466 0
658 -257 0
-658 466 257 0
659 -135 0
659 -254 0
-659 135 254 0
660 -701 0
660 -661 0
660 -662 0
660 -129 0
-660 701 661 662 129 0
-661 466 0
-661 257 0
661 -466 -257 0
-662 135 0
-662 424 0
662 -135 -424 0
663 -652 0
663 -653 0
-663 652 653 0
-664 427 0
-664 53 0
-664 59 0
664 -427 -53 -59 0
665 -502 0
665 -505 0
665 -504 0
665 -507 0
665 -506 0
-665 502 505 504 507 506 0
-742 493 0
-742 716 0
742 -493 -716 0
667 -560 0
667 -559 0
667 -558 0
667 -557 0
667 -556 0
667 -555 0
667 -554 0
667 -565 0
667 -564 0
-667 560 559 558 557 556 555 554 565 564 0
821 -687 0
821 -405 0
821 -406 0
821 -299 0
-821 687 405 406 299 0
669 -715 0
669 -525 0
669 -364 0
669 -361 0
-669 715 525 364 361 0
670 -671 0
670 -122 0
670 -123 0
670 -120 0
670 -121 0
-670 671 122 123 120 121 0
671 -672 0
671 -304 0
671 -123 0
671 -305 0
-671 672 304 123 305 0
672 -673 0
672 -674 0
672 -675 0
672 -676 0
672 -665 0
672 -742 0
-672 673 674 675 676 665 742 0
673 -718 0
673 -525 0
673 -116 0
673 -524 0
673 -523 0
673 -522 0
673 -521 0
673 -520 0
673 -467 0
-673 718 525 116 524 523 522 521 520 467 0
674 -375 0
674 -376 0
674 -377 0
674 -378 0
674 -387 0
-674 375 376 377 378 387 0
675 -388 0
675 -501 0
-675 388 501 0
676 -500 0
676 -503 0
-676 500 503 0
677 -209 0
677 -172 0
677 -171 0
677 -237 0
677 -236 0
677 -50 0
-677 209 172 171 237 236 50 0
678 -212 0
678 -233 0
678 -90 0
678 -91 0
678 -92 0
678 -58 0
-678 212 233 90 91 92 58 0
679 -677 0
679 -392 0
-679 677 392 0
680 -678 0
680 -57 0
-680 678 57 0
681 -677 0
681 -443 0
-681 677 443 0
682 -678 0
682 -444 0
-682 678 444 0
683 -677 0
683 -445 0
-683 677 445 0
684 -678 0
684 -51 0
-684 678 51 0
685 -643 0
685 -47 0
-685 643 47 0
686 -293 0
686 -133 0
686 -132 0
-686 293 133 132 0
687 -812 0
687 -156 0
687 -157 0
687 -284 0
687 -285 0
-687 812 156 157 284 285 0
-688 643 0
-688 549 0
688 -643 -549 0
689 -695 0
689 -33 0
689 -836 0
-689 695 33 836 0
-690 697 0
-690 750 0
690 -697 -750 0
-691 696 0
-691 750 0
691 -696 -750 0
-692 696 0
-692 697 0
692 -696 -697 0
693 -212 0
693 -90 0
693 -91 0
-693 212 90 91 0
836 -38 0
836 -39 0
-836 38 39 0
695 -209 0
695 -171 0
695 -237 0
-695 209 171 237 0
696 -693 0
696 -36 0
696 -758 0
-696 693 36 758 0
697 -811 0
697 -43 0
697 -197 0
697 -749 0
-697 811 43 197 749 0
758 -37 0
758 -42 0
-758 37 42 0
-576 577 0
-576 764 0
576 -577 -764 0
-700 658 0
-700 659 0
700 -658 -659 0
701 -657 0
701 -281 0
701 -80 0
701 -82 0
-701 657 281 80 82 0
702 -660 0
702 -161 0
702 -160 0
702 -159 0
702 -158 0
-702 660 161 160 159 158 0
703 -709 0
703 -708 0
703 -130 0
703 -707 0
-703 709 708 130 707 0
704 -703 0
704 -710 0
-704 703 710 0
705 -715 0
705 -119 0
705 -131 0
-705 715 119 131 0
706 -547 0
706 -125 0
706 -124 0
-706 547 125 124 0
-633 819 0
-633 562 0
633 -819 -562 0
708 -255 0
708 -268 0
708 -269 0
-708 255 268 269 0
709 -701 0
709 -700 0
709 -129 0
709 -128 0
709 -270 0
-709 701 700 129 128 270 0
710 -660 0
710 -128 0
710 -270 0
710 -422 0
710 -421 0
-710 660 128 270 422 421 0
711 -714 0
711 -725 0
711 -656 0
711 -267 0
-711 714 725 656 267 0
-712 706 0
-712 705 0
-712 704 0
712 -706 -705 -704 0
-713 127 0
-713 126 0
713 -127 -126 0
714 -266 0
714 -265 0
714 -264 0
714 -263 0
714 -262 0
-714 266 265 264 263 262 0
715 -362 0
715 -359 0
715 -466 0
715 -123 0
715 -120 0
715 -121 0
-715 362 359 466 123 120 121 0
716 -492 0
716 -363 0
-716 492 363 0
717 -380 0
717 -381 0
717 -382 0
-717 380 381 382 0
718 -466 0
718 -717 0
718 -470 0
718 -469 0
718 -379 0
-718 466 717 470 469 379 0
719 -713 0
719 -712 0
-719 713 712 0
720 -533 0
720 -518 0
720 -519 0
-720 533 518 519 0
721 -526 0
721 -527 0
721 -528 0
721 -529 0
721 -530 0
721 -531 0
721 -532 0
-721 526 527 528 529 530 531 532 0
722 -360 0
722 -357 0
722 -358 0
722 -355 0
722 -356 0
-722 360 357 358 355 356 0
723 -803 0
723 -206 0
-723 803 206 0
724 -212 0
724 -233 0
724 -90 0
724 -91 0
724 -92 0
724 -207 0
-724 212 233 90 91 92 207 0
803 -209 0
803 -172 0
803 -171 0
803 -237 0
803 -236 0
803 -208 0
-803 209 172 171 237 236 208 0
553 -724 0
553 -204 0
-553 724 204 0
727 -803 0
727 -203 0
-727 803 203 0
728 -724 0
728 -52 0
-728 724 52 0
729 -803 0
729 -391 0
-729 803 391 0
-730 680 0
-730 679 0
730 -680 -679 0
-731 684 0
-731 683 0
731 -684 -683 0
-732 682 0
-732 681 0
732 -682 -681 0
-835 318 0
-835 40 0
835 -318 -40 0
-833 617 0
-833 616 0
833 -617 -616 0
-734 740 0
-734 757 0
734 -740 -757 0
735 -637 0
735 -597 0
-735 637 597 0
736 -687 0
736 -405 0
736 -336 0
736 -386 0
736 -831 0
-736 687 405 336 386 831 0
737 -218 0
737 -219 0
-737 218 219 0
738 -736 0
738 -801 0
-738 736 801 0
739 -232 0
739 -717 0
739 -225 0
739 -83 0
739 -81 0
739 -390 0
739 -389 0
739 -384 0
739 -383 0
-739 232 717 225 83 81 390 389 384 383 0
800 -737 0
800 -215 0
800 -220 0
800 -221 0
-800 737 215 220 221 0
741 -687 0
741 -405 0
741 -190 0
-741 687 405 190 0
805 -547 0
805 -19 0
805 -18 0
-805 547 19 18 0
-743 784 0
-743 783 0
743 -784 -783 0
744 -563 0
744 -760 0
744 -593 0
744 -804 0
744 -835 0
744 -828 0
-744 563 760 593 804 835 828 0
-745 741 0
-745 805 0
745 -741 -805 0
-746 552 0
-746 631 0
746 -552 -631 0
747 -192 0
747 -195 0
-747 192 195 0
748 -194 0
748 -191 0
-748 194 191 0
749 -196 0
749 -199 0
-749 196 199 0
750 -747 0
750 -198 0
750 -193 0
750 -748 0
-750 747 198 193 748 0
751 -17 0
751 -106 0
751 -107 0
-751 17 106 107 0
753 -122 0
753 -316 0
753 -317 0
-753 122 316 317 0
755 -466 0
755 -13 0
755 -14 0
-755 466 13 14 0
698 -612 0
698 -615 0
698 -614 0
-698 612 615 614 0
757 -192 0
757 -223 0
757 -114 0
-757 192 223 114 0
759 -734 0
759 -235 0
-759 734 235 0
791 -792 0
791 -789 0
791 -312 0
-791 792 789 312 0
-699 771 0
-699 538 0
699 -771 -538 0
-810 634 0
-810 630 0
810 -634 -630 0
630 -30 0
630 -163 0
-630 30 163 0
634 -772 0
634 -27 0
634 -354 0
-634 772 27 354 0
765 -23 0
765 -22 0
-765 23 22 0
766 -25 0
766 -24 0
-766 25 24 0
818 -234 0
818 -233 0
818 -90 0
818 -91 0
818 -92 0
818 -170 0
-818 234 233 90 91 92 170 0
768 -21 0
768 -20 0
-768 21 20 0
-769 751 0
-769 753 0
769 -751 -753 0
770 -711 0
770 -374 0
770 -85 0
770 -84 0
-770 711 374 85 84 0
771 -539 0
771 -350 0
771 -349 0
771 -352 0
-771 539 350 349 352 0
772 -172 0
772 -175 0
772 -171 0
772 -237 0
772 -353 0
772 -31 0
-772 172 175 171 237 353 31 0
611 -837 0
611 -69 0
611 -70 0
611 -71 0
611 -72 0
611 -73 0
-611 837 69 70 71 72 73 0
-563 320 0
-563 318 0
563 -320 -318 0
551 -180 0
551 -181 0
551 -188 0
551 -189 0
-551 180 181 188 189 0
-775 738 0
-775 735 0
775 -738 -735 0
-776 777 0
-776 780 0
776 -777 -780 0
777 -687 0
777 -779 0
-777 687 779 0
778 -464 0
778 -635 0
778 -824 0
-778 464 635 824 0
779 -456 0
779 -782 0
779 -457 0
779 -450 0
779 -451 0
779 -452 0
779 -453 0
779 -76 0
779 -77 0
-779 456 782 457 450 451 452 453 76 77 0
780 -547 0
780 -802 0
780 -654 0
780 -739 0
-780 547 802 654 739 0
631 -695 0
631 -329 0
631 -328 0
-631 695 329 328 0
552 -693 0
552 -327 0
552 -326 0
-552 693 327 326 0
783 -788 0
783 -787 0
783 -186 0
783 -187 0
-783 788 787 186 187 0
784 -786 0
784 -785 0
784 -331 0
784 -330 0
-784 786 785 331 330 0
785 -332 0
785 -335 0
785 -334 0
-785 332 335 334 0
786 -442 0
786 -141 0
786 -333 0
786 -285 0
786 -331 0
786 -812 0
786 -212 0
-786 442 141 333 285 331 812 212 0
787 -551 0
787 -185 0
787 -182 0
787 -183 0
-787 551 185 182 183 0
788 -252 0
788 -414 0
788 -253 0
788 -184 0
788 -250 0
788 -186 0
788 -827 0
788 -17 0
-788 252 414 253 184 250 186 827 17 0
-789 755 0
-789 733 0
789 -755 -733 0
790 -795 0
790 -796 0
790 -793 0
-790 795 796 793 0
773 -703 0
773 -428 0
-773 703 428 0
792 -790 0
792 -313 0
792 -310 0
792 -311 0
-792 790 313 310 311 0
793 -314 0
793 -479 0
793 -472 0
793 -471 0
793 -11 0
793 -12 0
-793 314 479 472 471 11 12 0
794 -798 0
794 -480 0
-794 798 480 0
795 -308 0
795 -309 0
795 -474 0
795 -473 0
795 -476 0
-795 308 309 474 473 476 0
796 -794 0
796 -475 0
796 -478 0
796 -477 0
-796 794 475 478 477 0
834 -570 0
834 -200 0
834 -201 0
834 -202 0
834 -205 0
-834 570 200 201 202 205 0
797 -217 0
797 -216 0
797 -68 0
-797 217 216 68 0
-798 799 0
-798 797 0
798 -799 -797 0
799 -212 0
799 -227 0
799 -226 0
-799 212 227 226 0
801 -598 0
801 -280 0
801 -155 0
801 -154 0
801 -283 0
801 -282 0
801 -166 0
-801 598 280 155 154 283 282 166 0
802 -62 0
802 -800 0
802 -408 0
802 -407 0
802 -481 0
802 -74 0
802 -230 0
802 -231 0
802 -214 0
-802 62 800 408 407 481 74 230 231 214 0
-804 318 0
-804 41 0
804 -318 -41 0
654 -671 0
654 -122 0
654 -120 0
654 -121 0
-654 671 122 120 121 0
774 -600 0
774 -425 0
-774 600 425 0
807 -400 0
807 -395 0
-807 400 395 0
808 -396 0
808 -26 0
-808 396 26 0
-707 420 0
-707 419 0
707 -420 -419 0
809 -136 0
809 -336 0
809 -138 0
809 -806 0
-809 136 336 138 806 0
806 -812 0
806 -141 0
806 -212 0
806 -285 0
-806 812 141 212 285 0
811 -135 0
811 -134 0
-811 135 134 0
812 -152 0
812 -153 0
812 -292 0
-812 152 153 292 0
813 -810 0
813 -699 0
813 -28 0
-813 810 699 28 0
814 -398 0
814 -399 0
-814 398 399 0
815 -818 0
815 -29 0
815 -163 0
815 -164 0
815 -169 0
-815 818 29 163 164 169 0
816 -167 0
816 -168 0
-816 167 168 0
831 -598 0
831 -606 0
831 -280 0
831 -385 0
831 -79 0
831 -78 0
831 -319 0
831 -321 0
831 -322 0
831 -323 0
831 -324 0
831 -325 0
831 -468 0
-831 598 606 280 385 79 78 319 321 322 323 324 325 468 0
733 -217 0
733 -15 0
733 -16 0
-733 217 15 16 0
832 -833 0
832 -235 0
-832 833 235 0
666 -418 0
666 -417 0
666 -410 0
666 -409 0
666 -393 0
-666 418 417 410 409 393 0
668 -640 0
668 -251 0
668 -249 0
-668 640 251 249 0
754 -666 0
754 -655 0
754 -628 0
-754 666 655 628 0
-756 754 0
-756 668 0
756 -754 -668 0
817 -411 0
817 -414 0
817 -413 0
817 -416 0
817 -415 0
-817 411 414 413 416 415 0
752 -246 0
752 -247 0
752 -244 0
752 -245 0
752 -412 0
-752 246 247 244 245 412 0
694 -752 0
694 -817 0
694 -756 0
-694 752 817 756 0
827 -694 0
827 -251 0
827 -248 0
827 -249 0
-827 694 251 248 249 0
-828 41 0
-828 40 0
828 -41 -40 0
829 -46 0
829 -102 0
829 -101 0
829 -100 0
829 -45 0
-829 46 102 101 100 45 0
-830 609 0
-830 685 0
830 -609 -685 0
609 -752 0
609 -688 0
609 -628 0
-609 752 688 628 0
-760 320 0
-760 41 0
760 -320 -41 0
-593 320 0
-593 40 0
593 -320 -40 0
628 -645 0
628 -646 0
-628 645 646 0
-655 640 0
-655 641 0
655 -640 -641 0
767 -636 0
767 -365 0
767 -366 0
-767 636 365 366 0
837 -135 0
837 -134 0
837 -43 0
837 -441 0
-837 135 134 43 441 0
838 -192 0
838 -195 0
838 -198 0
838 -511 0
-838 192 195 198 511 0
839 -175 0
839 -172 0
839 -171 0
839 -237 0
839 -236 0
839 -239 0
-839 175 172 171 237 236 239 0
840 -346 0
840 -343 0
-840 346 343 0
841 -340 0
841 -345 0
-841 340 345 0
842 -342 0
842 -339 0
-842 342 339 0
843 -490 0
843 -341 0
-843 490 341 0
844 -482 0
844 -491 0
-844 482 491 0
845 -484 0
845 -483 0
-845 484 483 0
846 -626 0
846 -627 0
846 -240 0
-846 626 627 240 0
847 -238 0
847 -241 0
-847 238 241 0
848 -839 0
848 -178 0
848 -174 0
848 -173 0
848 -176 0
-848 839 178 174 173 176 0
